120
[24,25,26,27,28,29,30,31,32,33,34,35,36,37,38,39,40,41,42,43,44,45,46,47,48,49,50,51,52,53,54,55,56,57,58,59,60,61,62,63,64,65,66,67,68,69,70,71,72,73,74,75,76,77,78,79,80,81,82,83,84]
[20,19,19,12,18,10,18,10,12,12,15,20,13,9,16,12,26,16,20,10,17,21,17,17,26,16,15,16,23,16,14,22,15,17,28,12,18,19,15,8,20,14,17,23,12,11,16,13,16,21,14,17,15,25,15,19,16,12,16,16,13]
